[VALIDATOR STDOUT]
Checking plan: /home/jfan5/Safety-gen/runs/benchmark/optic/ferry_20260205_113042/ferry/optic_results/ferry-l37-c19-s37001.plan
Plan executed successfully - checking goal
Plan valid
Final value: 87 

Successful plans:
Value: 87
 /home/jfan5/Safety-gen/runs/benchmark/optic/ferry_20260205_113042/ferry/optic_results/ferry-l37-c19-s37001.plan 87
